
List of user-set options:

                                    Name   Value                used
                           compl_inf_tol = 1                     yes
                         constr_viol_tol = 1                     yes
                            dual_inf_tol = 1000                  yes
                           linear_solver = ma97                  yes
                              ma86_small = 1e-30                  no
                                  ma86_u = 0.0001                 no
                              ma97_order = best                  yes
                              ma97_small = 1e-30                 yes
                            ma97_switch1 = at_start              yes
                            ma97_switch2 = od_hd_reuse           yes
                                  ma97_u = 1e-06                 yes
                               ma97_umax = 0.5                   yes
                                max_iter = 1000                  yes
                    max_refinement_steps = 20                    yes
                    min_refinement_steps = 5                     yes
                                 mu_init = 1e-06                 yes
           mu_superlinear_decrease_power = 1.25                  yes
                   nlp_scaling_min_value = 1e-08                 yes
                        option_file_name = Preset_Case_427_pf.opt  yes
                             output_file = ./tmp/Preset_Case_427_pf.output  yes
                      print_user_options = yes                   yes
        required_infeasibility_reduction = 1                      no
                                     tol = 1e-08                 yes
                   warm_start_bound_frac = 1e-20                 yes
                   warm_start_bound_push = 1e-20                 yes
                   warm_start_init_point = yes                   yes
              warm_start_mult_bound_push = 1e-20                 yes
                warm_start_mult_init_max = 1e+40                 yes
             warm_start_slack_bound_frac = 1e-20                 yes
             warm_start_slack_bound_push = 1e-20                 yes

******************************************************************************
This program contains Ipopt, a library for large-scale nonlinear optimization.
 Ipopt is released as open source code under the Eclipse Public License (EPL).
         For more information visit http://projects.coin-or.org/Ipopt
******************************************************************************

This is Ipopt version 3.12.10, running with linear solver ma97.

Number of nonzeros in equality constraint Jacobian...:   123443
Number of nonzeros in inequality constraint Jacobian.:      213
Number of nonzeros in Lagrangian Hessian.............:    49069

Total number of variables............................:    31591
                     variables with only lower bounds:    12912
                variables with lower and upper bounds:    15130
                     variables with only upper bounds:        0
Total number of equality constraints.................:    31483
Total number of inequality constraints...............:       25
        inequality constraints with only lower bounds:        4
   inequality constraints with lower and upper bounds:        0
        inequality constraints with only upper bounds:       21

iter    objective    inf_pr   inf_du lg(mu)  ||d||  lg(rg) alpha_du alpha_pr  ls
   0 -5.2910510e+00 4.05e-03 1.02e+00  -6.0 0.00e+00    -  0.00e+00 0.00e+00   0
   1 -5.2931034e+00 8.68e+00 4.10e+01  -6.0 3.86e+05    -  8.32e-05 1.18e-03h  1
   2 -5.2930638e+00 8.68e+00 4.10e+01  -6.0 2.28e+03    -  1.07e-04 3.45e-05h  1
   3 -5.2904561e+00 8.67e+00 4.09e+01  -6.0 2.22e+04    -  1.09e-04 1.01e-03h  3
   4 -5.2904081e+00 8.67e+00 1.36e+02  -6.0 3.10e+03    -  2.36e-01 4.28e-05h  9
   5r-5.2904081e+00 8.67e+00 9.99e+02   0.9 0.00e+00    -  0.00e+00 3.63e-07R 15
   6r-5.4187488e+00 8.67e+00 9.99e+02   0.9 1.53e+05    -  1.52e-09 4.06e-08f  1
   7 -5.4486337e+00 8.67e+00 1.01e+04  -6.0 1.96e+06    -  1.40e-03 7.33e-04h  1
   8 -5.4613197e+00 8.63e+00 8.23e+03  -6.0 4.48e+05    -  2.17e-06 4.26e-03h  1
   9 -5.4813982e+00 1.29e+01 8.44e+03  -6.0 4.46e+05    -  4.07e-04 3.58e-03h  1
iter    objective    inf_pr   inf_du lg(mu)  ||d||  lg(rg) alpha_du alpha_pr  ls
  10 -5.4807936e+00 1.28e+01 8.43e+03  -6.0 1.22e+05    -  2.19e-03 8.54e-04h  5
  11 -5.4857650e+00 1.27e+01 1.08e+04  -6.0 9.12e+04    -  9.20e-04 9.62e-03h  1
  12 -5.4956866e+00 1.81e+01 1.36e+06  -6.0 1.99e+04    -  7.35e-03 4.98e-02f  1
  13 -5.4878962e+00 1.80e+01 1.35e+06  -6.0 4.54e+02  -4.0 3.91e-02 7.08e-03h  2
  14 -5.4830429e+00 1.79e+01 1.35e+06  -6.0 4.60e+02  -4.5 3.18e-02 4.48e-03h  6
  15 -5.4817598e+00 1.79e+01 1.34e+06  -6.0 4.69e+02  -5.0 1.28e-01 1.21e-03h  8
  16 -5.4808314e+00 1.79e+01 1.34e+06  -6.0 4.84e+02  -5.4 1.37e-01 9.02e-04h  5
  17 -5.4807293e+00 1.79e+01 1.34e+06  -6.0 5.18e+02  -5.9 3.30e-01 1.07e-04h  9
  18 -5.4046359e+00 1.62e+01 1.10e+06  -6.0 5.75e+02  -6.4 5.49e-02 9.42e-02h  1
  19 -5.3944256e+00 1.58e+01 1.07e+06  -6.0 7.06e+02  -6.9 1.37e-01 2.45e-02h  1
iter    objective    inf_pr   inf_du lg(mu)  ||d||  lg(rg) alpha_du alpha_pr  ls
  20 -5.3365932e+00 1.33e+01 8.66e+05  -6.0 8.01e+02  -7.3 1.52e-02 1.59e-01h  1
  21 -5.3400062e+00 1.33e+01 8.62e+05  -6.0 1.65e+05    -  2.56e-03 2.10e-03h  1
  22 -5.3410155e+00 1.32e+01 8.58e+05  -6.0 2.64e+04    -  1.75e-02 4.98e-03h  1
  23 -5.3474382e+00 1.34e+01 8.19e+05  -6.0 2.60e+04    -  7.16e-02 3.84e-02h  1
  24 -5.3475826e+00 1.34e+01 8.15e+05  -6.0 1.41e+04    -  2.51e-02 4.79e-03h  1
  25 -5.3496326e+00 2.16e+01 6.91e+05  -6.0 1.35e+04    -  3.75e-02 6.80e-02h  2
  26 -5.3488219e+00 2.07e+01 3.70e+05  -6.0 8.68e+03    -  8.32e-02 1.03e-01h  1
  27 -5.3700786e+00 1.81e+01 2.59e+05  -6.0 5.21e+03    -  8.46e-02 1.42e-01h  1
  28 -5.3755652e+00 1.72e+01 1.88e+05  -6.0 2.65e+03    -  2.46e-02 5.34e-02h  1
  29 -5.3922719e+00 1.56e+01 1.13e+05  -6.0 2.36e+03    -  5.61e-02 9.24e-02h  1
iter    objective    inf_pr   inf_du lg(mu)  ||d||  lg(rg) alpha_du alpha_pr  ls
  30 -5.3922812e+00 1.56e+01 1.75e+05  -6.0 1.98e+02  -2.4 4.22e-06 4.72e-05h  1
  31 -5.3917855e+00 1.56e+01 1.60e+05  -6.0 4.64e+03    -  2.88e-06 1.96e-03h  1
  32 -5.4414606e+00 1.17e+01 1.97e+05  -6.0 1.46e+03    -  1.12e-01 2.51e-01h  1
  33 -5.4582180e+00 1.10e+01 1.85e+05  -6.0 7.82e+02    -  1.99e-01 6.63e-02h  1
  34 -5.5211467e+00 8.19e+00 1.47e+05  -6.0 8.27e+02    -  1.01e-01 2.65e-01h  1
  35 -5.5371777e+00 9.52e+00 1.40e+05  -6.0 7.47e+03    -  1.11e-01 4.92e-02h  1
  36 -5.5974341e+00 7.16e+00 1.07e+05  -6.0 1.31e+03    -  1.47e-01 2.49e-01h  1
  37 -5.6679134e+00 6.58e+00 6.74e+04  -6.0 9.91e+02    -  8.94e-02 3.76e-01h  1
  38 -5.7258986e+00 3.58e+00 3.54e+04  -6.0 3.65e+02    -  6.15e-04 4.69e-01h  1
  39 -5.7336209e+00 3.17e+00 4.48e+04  -6.0 1.09e+02  -2.9 5.99e-06 1.15e-01h  1
iter    objective    inf_pr   inf_du lg(mu)  ||d||  lg(rg) alpha_du alpha_pr  ls
  40 -5.7543092e+00 1.99e+00 9.29e+04  -6.0 4.23e+01  -3.4 8.47e-03 3.72e-01h  1
  41 -5.7621336e+00 4.08e-02 1.89e+03  -6.0 3.44e+00  -3.8 2.23e-02 1.00e+00h  1
  42 -5.7630687e+00 4.72e-03 3.67e+02  -6.0 2.93e+00  -4.3 7.51e-01 1.00e+00h  1
  43 -5.7674298e+00 2.18e-02 2.41e+02  -6.0 7.87e+00  -4.8 5.59e-01 1.00e+00h  1
  44 -5.7894972e+00 2.97e-01 1.71e+03  -6.0 6.59e+02    -  2.85e-01 2.70e-01h  1
  45 -5.7823791e+00 1.06e-01 1.94e+03  -6.0 2.32e+01  -5.3 9.84e-01 1.00e+00h  1
  46 -5.7929236e+00 1.98e-01 1.91e+03  -6.0 4.45e+01  -5.7 6.44e-01 1.00e+00h  1
  47 -5.8023536e+00 1.63e-01 7.34e+02  -6.0 6.23e+01  -6.2 9.93e-01 1.00e+00h  1
  48 -5.8104538e+00 1.92e-01 1.95e+02  -6.0 9.39e+01  -6.7 5.38e-01 5.81e-01h  1
  49 -5.8185599e+00 6.26e-01 1.68e+03  -6.0 1.24e+02  -7.2 7.56e-01 5.55e-01h  1
iter    objective    inf_pr   inf_du lg(mu)  ||d||  lg(rg) alpha_du alpha_pr  ls
  50 -5.8355714e+00 7.18e+00 1.13e+04  -6.0 5.55e+02  -7.6 9.97e-02 8.01e-01h  1
  51 -5.8481764e+00 4.43e+00 5.78e+03  -6.0 2.48e+03    -  4.12e-01 3.92e-01h  1
  52 -5.8534890e+00 2.50e+00 4.27e+04  -6.0 1.44e+03    -  2.25e-04 4.67e-01h  1
  53 -5.8692397e+00 3.39e+00 2.74e+02  -6.0 1.11e+03    -  1.00e+00 1.00e+00h  1
  54 -5.8698913e+00 3.16e+00 4.53e+05  -6.0 1.45e+02    -  1.00e+00 6.63e-02h  1
  55 -5.8730063e+00 2.20e+00 4.25e+05  -6.0 1.93e+02    -  1.00e+00 3.06e-01h  1
  56 -5.8778409e+00 1.53e+00 7.07e+05  -6.0 1.88e+02    -  1.00e+00 3.09e-01h  1
  57r-5.8778409e+00 1.53e+00 1.00e+03  -0.3 0.00e+00    -  0.00e+00 2.84e-07R  4
  58r-5.8837504e+00 1.53e+00 1.49e+03  -0.3 1.11e+04    -  1.96e-05 2.79e-06f  1
  59 -5.8831907e+00 1.42e+00 2.29e+04  -6.0 1.84e+01    -  8.10e-02 6.68e-02h  1
iter    objective    inf_pr   inf_du lg(mu)  ||d||  lg(rg) alpha_du alpha_pr  ls
  60 -5.8831844e+00 1.42e+00 1.05e+05  -6.0 6.95e+00    -  6.68e-02 1.63e-03h  1
  61 -5.8807977e+00 1.01e+00 7.41e+04  -6.0 4.96e+00    -  1.23e-01 2.92e-01h  1
  62 -5.8802479e+00 9.01e-01 6.64e+04  -6.0 3.17e+00    -  4.21e-01 1.04e-01h  1
  63 -5.8753501e+00 3.68e-04 2.56e+01  -6.0 2.91e+00    -  9.29e-01 1.00e+00h  1
  64 -5.8765838e+00 1.10e-03 2.14e+01  -6.0 4.30e+00    -  9.65e-01 1.00e+00h  1
  65 -5.8875419e+00 1.21e-01 3.70e+01  -6.0 8.86e+01    -  8.50e-02 6.22e-01h  1
  66 -5.8878129e+00 9.74e-02 2.98e+02  -6.0 5.59e+01    -  8.33e-01 2.67e-01h  1
  67 -5.8885198e+00 1.38e-01 9.60e+02  -6.0 8.84e+01    -  9.30e-01 1.00e+00F  1
  68 -5.8950308e+00 1.43e+00 7.08e+02  -6.0 8.10e+02    -  2.64e-01 2.63e-01h  1
  69 -5.9009006e+00 5.35e-01 4.09e+02  -6.0 1.24e+02    -  6.53e-01 7.05e-01h  1
iter    objective    inf_pr   inf_du lg(mu)  ||d||  lg(rg) alpha_du alpha_pr  ls
  70 -5.9051926e+00 1.32e+00 1.91e+02  -6.0 2.00e+03    -  9.23e-02 8.35e-02h  1
  71 -5.9177421e+00 1.51e+00 7.63e+02  -6.0 2.28e+02    -  9.69e-01 1.00e+00h  1
  72 -5.9230252e+00 1.17e+00 1.13e+04  -6.0 2.12e+02    -  4.55e-01 3.05e-01h  1
  73 -5.9400465e+00 1.26e+00 2.11e+03  -6.0 2.11e+02    -  9.90e-01 1.00e+00h  1
  74 -5.9468999e+00 9.77e-01 3.57e+04  -6.0 2.11e+02    -  4.42e-01 3.45e-01h  1
  75 -5.9662739e+00 1.42e+00 1.15e+04  -6.0 2.29e+02    -  1.00e+00 9.76e-01h  1
  76r-5.9662739e+00 1.42e+00 1.00e+03   0.2 0.00e+00    -  0.00e+00 3.27e-07R  3
  77r-5.9713162e+00 1.42e+00 1.00e+03   0.2 2.26e+04    -  6.24e-06 1.37e-06f  1
  78 -5.9711887e+00 1.40e+00 1.54e+05  -6.0 1.58e+01    -  1.09e-01 1.38e-02h  1
  79 -5.9658725e+00 1.18e+00 1.93e+06  -6.0 1.38e+01    -  1.38e-02 1.54e-01h  1
iter    objective    inf_pr   inf_du lg(mu)  ||d||  lg(rg) alpha_du alpha_pr  ls
  80 -5.9613665e+00 9.32e-01 1.52e+06  -6.0 1.33e+01    -  2.34e-01 2.13e-01h  1
  81 -5.9555199e+00 3.09e-01 5.00e+05  -6.0 1.27e+01    -  2.35e-01 6.71e-01h  1
  82 -5.9632716e+00 2.15e-01 3.49e+05  -6.0 7.44e+00    -  9.00e-02 3.03e-01h  1
  83 -5.9597909e+00 1.78e-01 2.88e+05  -6.0 3.73e+00    -  9.08e-01 1.74e-01h  1
  84 -5.9611783e+00 1.60e-04 8.49e+00  -6.0 1.18e+00  -3.6 9.15e-01 1.00e+00h  1
  85 -5.9612146e+00 1.56e-04 1.38e+01  -6.0 9.90e-01  -4.1 9.94e-01 2.32e-02h  1
  86 -5.9626739e+00 2.75e-04 1.98e-01  -6.0 1.62e+00  -4.6 1.00e+00 9.87e-01f  1
  87 -5.9626986e+00 2.47e-04 4.20e-01  -6.0 2.68e+00  -5.0 1.00e+00 1.86e-01h  1
  88 -5.9631164e+00 4.89e-03 7.26e-02  -6.0 7.69e+00  -5.5 1.00e+00 1.00e+00f  1
  89 -5.9676559e+00 4.82e-01 1.72e+01  -6.0 8.30e+02    -  2.12e-01 7.85e-02h  1
iter    objective    inf_pr   inf_du lg(mu)  ||d||  lg(rg) alpha_du alpha_pr  ls
  90 -5.9759619e+00 7.09e-01 5.12e+00  -6.0 1.48e+02    -  1.00e+00 1.00e+00h  1
  91 -5.9762809e+00 4.75e-01 6.75e+00  -6.0 1.27e+02    -  7.08e-01 5.37e-01h  1
  92 -5.9715655e+00 2.47e-02 7.77e+03  -6.0 2.43e+01    -  7.38e-01 1.00e+00h  1
  93 -5.9747140e+00 9.44e-02 1.92e+03  -6.0 7.21e+01    -  1.00e+00 6.30e-01h  1
  94 -5.9757843e+00 5.90e-02 1.50e+03  -6.0 3.73e+01    -  6.04e-01 5.73e-01h  1
  95 -5.9731276e+00 1.21e-02 5.78e+04  -6.0 1.71e+01    -  5.26e-03 1.00e+00h  1
  96 -5.9737818e+00 2.71e-05 1.10e+02  -6.0 8.24e-01  -6.0 1.00e+00 1.00e+00h  1
  97 -5.9737814e+00 2.63e-05 1.06e+02  -6.0 2.39e+00    -  1.00e+00 6.25e-02h  5
  98 -5.9737808e+00 2.62e-05 9.22e+01  -6.0 2.23e+00    -  1.00e+00 1.25e-01h  4
  99 -5.9737749e+00 1.70e-05 7.46e+01  -6.0 1.93e+00    -  1.00e+00 1.00e+00H  1
iter    objective    inf_pr   inf_du lg(mu)  ||d||  lg(rg) alpha_du alpha_pr  ls
 100 -5.9737754e+00 7.21e-06 1.42e+01  -6.0 9.51e-01    -  1.00e+00 1.00e+00H  1
 101 -5.9737754e+00 4.82e-07 1.84e-05  -6.0 1.08e-01    -  1.00e+00 1.00e+00h  1
 102 -5.9737754e+00 4.28e-10 4.58e-11  -6.0 7.27e-05    -  1.00e+00 1.00e+00h  1
 103 -5.9738736e+00 2.48e+00 1.11e+01  -7.5 5.08e+02    -  8.23e-01 7.85e-01h  1
 104 -5.9738692e+00 4.84e-01 8.46e+00  -7.5 1.20e+02    -  1.00e+00 8.79e-01h  1
 105 -5.9738668e+00 2.56e-03 5.73e-03  -7.5 1.22e+01    -  1.00e+00 1.00e+00h  1
 106 -5.9738668e+00 3.27e-06 5.96e-07  -7.5 4.55e-01    -  1.00e+00 1.00e+00h  1
 107 -5.9738668e+00 3.87e-09 7.06e-10  -7.5 1.56e-02    -  1.00e+00 1.00e+00h  1
 108 -5.9738682e+00 2.61e-03 8.22e-01  -9.0 1.53e+01    -  9.24e-01 8.34e-01h  1
 109 -5.9738685e+00 3.73e-05 2.23e-04  -9.0 1.52e+00    -  1.00e+00 1.00e+00h  1
iter    objective    inf_pr   inf_du lg(mu)  ||d||  lg(rg) alpha_du alpha_pr  ls
 110 -5.9738685e+00 3.25e-06 6.32e-07  -9.0 4.51e-01    -  1.00e+00 1.00e+00h  1
 111 -5.9738685e+00 6.08e-08 1.16e-08  -9.0 6.17e-02    -  1.00e+00 1.00e+00h  1
 112 -5.9738685e+00 2.84e-10 4.21e-12  -9.0 1.18e-03    -  1.00e+00 1.00e+00h  1

Number of Iterations....: 112

                                   (scaled)                 (unscaled)
Objective...............:  -4.6670847550247485e+00   -5.9738684864316784e+00
Dual infeasibility......:   4.2082463503192738e-12    5.3865553284086705e-12
Constraint violation....:   2.8358233415595041e-10    2.8358233415595041e-10
Complementarity.........:   9.0911328125996772e-10    1.1636650000127587e-09
Overall NLP error.......:   9.0911328125996772e-10    1.1636650000127587e-09


Number of objective function evaluations             = 200
Number of objective gradient evaluations             = 113
Number of equality constraint evaluations            = 200
Number of inequality constraint evaluations          = 200
Number of equality constraint Jacobian evaluations   = 116
Number of inequality constraint Jacobian evaluations = 116
Number of Lagrangian Hessian evaluations             = 112
Total CPU secs in IPOPT (w/o function evaluations)   =    242.600
Total CPU secs in NLP function evaluations           =      4.471

EXIT: Optimal Solution Found.
